start_domain = 6;
target_domain = 7;
vnflist_size = 6;
vnflist = [10,1,3,1,5,10];
vnf_arcs = [|1,2|1,3|3,4|3,5|5,6|];
proximity_to_source = [0,0,0,0,0,0];
proximity_to_destination = [0,0,0,0,0,0];
n_domain_constraints = 2;
domain_constraints = [|8,1,1,1|8,3,1,1|];
